c Reduced graph for miles1000 generated by Cyril Grelier
p edge 128 3216
e 1 2
e 1 6
e 1 7
e 1 9
e 1 10
e 1 11
e 1 13
e 1 17
e 1 18
e 1 19
e 1 20
e 1 21
e 1 25
e 1 26
e 1 27
e 1 33
e 1 34
e 1 35
e 1 36
e 1 39
e 1 40
e 1 41
e 1 42
e 1 43
e 1 44
e 1 45
e 1 47
e 1 48
e 1 49
e 1 54
e 1 55
e 1 56
e 1 57
e 1 62
e 1 63
e 1 66
e 1 68
e 1 69
e 1 70
e 1 71
e 1 72
e 1 78
e 1 79
e 1 80
e 1 81
e 1 84
e 1 85
e 1 86
e 1 87
e 1 88
e 1 90
e 1 91
e 1 92
e 1 98
e 1 99
e 1 100
e 1 101
e 1 102
e 1 103
e 1 106
e 1 107
e 1 108
e 1 109
e 1 114
e 1 116
e 1 117
e 1 118
e 1 121
e 1 123
e 1 125
e 2 5
e 2 6
e 2 7
e 2 9
e 2 10
e 2 11
e 2 17
e 2 18
e 2 19
e 2 20
e 2 21
e 2 25
e 2 26
e 2 27
e 2 29
e 2 30
e 2 33
e 2 34
e 2 35
e 2 37
e 2 39
e 2 40
e 2 41
e 2 43
e 2 44
e 2 45
e 2 48
e 2 49
e 2 51
e 2 54
e 2 55
e 2 57
e 2 59
e 2 60
e 2 62
e 2 66
e 2 69
e 2 70
e 2 71
e 2 78
e 2 79
e 2 81
e 2 82
e 2 87
e 2 91
e 2 92
e 2 94
e 2 95
e 2 98
e 2 99
e 2 101
e 2 102
e 2 103
e 2 105
e 2 106
e 2 107
e 2 108
e 2 116
e 2 118
e 2 119
e 2 121
e 2 123
e 2 125
e 3 6
e 3 9
e 3 10
e 3 12
e 3 14
e 3 17
e 3 18
e 3 26
e 3 33
e 3 38
e 3 39
e 3 40
e 3 42
e 3 44
e 3 47
e 3 54
e 3 55
e 3 56
e 3 61
e 3 62
e 3 65
e 3 66
e 3 67
e 3 70
e 3 71
e 3 72
e 3 73
e 3 78
e 3 79
e 3 80
e 3 84
e 3 85
e 3 86
e 3 90
e 3 91
e 3 92
e 3 99
e 3 100
e 3 104
e 3 105
e 3 106
e 3 107
e 3 108
e 3 109
e 3 110
e 3 114
e 3 115
e 3 117
e 3 118
e 3 123
e 3 124
e 3 126
e 4 6
e 4 8
e 4 9
e 4 10
e 4 12
e 4 13
e 4 14
e 4 17
e 4 18
e 4 25
e 4 28
e 4 33
e 4 36
e 4 41
e 4 42
e 4 47
e 4 48
e 4 50
e 4 55
e 4 56
e 4 58
e 4 63
e 4 68
e 4 70
e 4 72
e 4 78
e 4 79
e 4 80
e 4 84
e 4 85
e 4 86
e 4 88
e 4 90
e 4 98
e 4 99
e 4 100
e 4 106
e 4 107
e 4 108
e 4 109
e 4 111
e 4 114
e 4 115
e 4 117
e 4 123
e 4 124
e 5 11
e 5 26
e 5 27
e 5 34
e 5 35
e 5 37
e 5 39
e 5 40
e 5 44
e 5 49
e 5 51
e 5 57
e 5 59
e 5 60
e 5 62
e 5 66
e 5 71
e 5 75
e 5 81
e 5 82
e 5 91
e 5 92
e 5 94
e 5 95
e 5 102
e 5 103
e 5 105
e 5 118
e 5 119
e 6 8
e 6 9
e 6 10
e 6 11
e 6 12
e 6 13
e 6 14
e 6 17
e 6 18
e 6 19
e 6 20
e 6 25
e 6 26
e 6 28
e 6 33
e 6 34
e 6 36
e 6 38
e 6 39
e 6 40
e 6 41
e 6 42
e 6 43
e 6 44
e 6 47
e 6 48
e 6 49
e 6 50
e 6 54
e 6 55
e 6 56
e 6 58
e 6 61
e 6 62
e 6 63
e 6 65
e 6 66
e 6 67
e 6 68
e 6 70
e 6 71
e 6 72
e 6 73
e 6 78
e 6 79
e 6 80
e 6 84
e 6 85
e 6 86
e 6 87
e 6 88
e 6 90
e 6 91
e 6 92
e 6 98
e 6 99
e 6 100
e 6 101
e 6 104
e 6 106
e 6 107
e 6 108
e 6 109
e 6 110
e 6 111
e 6 114
e 6 115
e 6 116
e 6 117
e 6 123
e 6 124
e 6 126
e 7 9
e 7 10
e 7 11
e 7 13
e 7 17
e 7 18
e 7 19
e 7 20
e 7 21
e 7 25
e 7 27
e 7 30
e 7 33
e 7 34
e 7 35
e 7 39
e 7 40
e 7 41
e 7 43
e 7 45
e 7 46
e 7 48
e 7 49
e 7 54
e 7 55
e 7 57
e 7 59
e 7 62
e 7 66
e 7 69
e 7 70
e 7 78
e 7 79
e 7 80
e 7 81
e 7 87
e 7 98
e 7 99
e 7 101
e 7 102
e 7 103
e 7 106
e 7 107
e 7 108
e 7 116
e 7 118
e 7 119
e 7 121
e 7 123
e 7 125
e 8 9
e 8 10
e 8 12
e 8 13
e 8 14
e 8 17
e 8 18
e 8 25
e 8 28
e 8 33
e 8 36
e 8 41
e 8 42
e 8 47
e 8 48
e 8 50
e 8 55
e 8 56
e 8 58
e 8 63
e 8 67
e 8 68
e 8 70
e 8 72
e 8 78
e 8 79
e 8 80
e 8 84
e 8 85
e 8 86
e 8 88
e 8 90
e 8 98
e 8 99
e 8 100
e 8 106
e 8 107
e 8 108
e 8 109
e 8 110
e 8 111
e 8 114
e 8 115
e 8 117
e 8 123
e 8 124
e 9 10
e 9 11
e 9 12
e 9 13
e 9 14
e 9 17
e 9 18
e 9 19
e 9 20
e 9 25
e 9 26
e 9 27
e 9 28
e 9 33
e 9 34
e 9 35
e 9 36
e 9 39
e 9 40
e 9 41
e 9 42
e 9 43
e 9 44
e 9 45
e 9 47
e 9 48
e 9 49
e 9 50
e 9 54
e 9 55
e 9 56
e 9 58
e 9 62
e 9 63
e 9 66
e 9 67
e 9 68
e 9 69
e 9 70
e 9 71
e 9 72
e 9 73
e 9 78
e 9 79
e 9 80
e 9 81
e 9 84
e 9 85
e 9 86
e 9 87
e 9 88
e 9 90
e 9 91
e 9 92
e 9 98
e 9 99
e 9 100
e 9 101
e 9 103
e 9 104
e 9 105
e 9 106
e 9 107
e 9 108
e 9 109
e 9 110
e 9 111
e 9 114
e 9 115
e 9 116
e 9 117
e 9 118
e 9 123
e 9 124
e 9 125
e 9 126
e 10 11
e 10 12
e 10 13
e 10 14
e 10 17
e 10 18
e 10 19
e 10 20
e 10 25
e 10 26
e 10 27
e 10 28
e 10 33
e 10 34
e 10 35
e 10 36
e 10 39
e 10 40
e 10 41
e 10 42
e 10 43
e 10 44
e 10 45
e 10 47
e 10 48
e 10 49
e 10 50
e 10 54
e 10 55
e 10 56
e 10 58
e 10 62
e 10 63
e 10 66
e 10 67
e 10 68
e 10 70
e 10 71
e 10 72
e 10 73
e 10 78
e 10 79
e 10 80
e 10 81
e 10 84
e 10 85
e 10 86
e 10 87
e 10 88
e 10 90
e 10 91
e 10 92
e 10 98
e 10 99
e 10 100
e 10 101
e 10 103
e 10 104
e 10 106
e 10 107
e 10 108
e 10 109
e 10 110
e 10 111
e 10 114
e 10 115
e 10 116
e 10 117
e 10 118
e 10 123
e 10 124
e 10 125
e 10 126
e 11 13
e 11 17
e 11 18
e 11 19
e 11 20
e 11 21
e 11 25
e 11 26
e 11 27
e 11 29
e 11 30
e 11 33
e 11 34
e 11 35
e 11 37
e 11 39
e 11 40
e 11 41
e 11 43
e 11 44
e 11 45
e 11 48
e 11 49
e 11 51
e 11 54
e 11 55
e 11 56
e 11 57
e 11 59
e 11 60
e 11 62
e 11 66
e 11 69
e 11 70
e 11 71
e 11 78
e 11 79
e 11 80
e 11 81
e 11 82
e 11 87
e 11 91
e 11 92
e 11 94
e 11 95
e 11 98
e 11 99
e 11 101
e 11 102
e 11 103
e 11 105
e 11 106
e 11 107
e 11 108
e 11 116
e 11 118
e 11 119
e 11 121
e 11 123
e 11 125
e 12 13
e 12 14
e 12 17
e 12 18
e 12 25
e 12 26
e 12 28
e 12 33
e 12 36
e 12 38
e 12 39
e 12 40
e 12 42
e 12 44
e 12 47
e 12 50
e 12 54
e 12 55
e 12 56
e 12 61
e 12 62
e 12 63
e 12 65
e 12 66
e 12 67
e 12 68
e 12 70
e 12 71
e 12 72
e 12 73
e 12 78
e 12 79
e 12 80
e 12 84
e 12 85
e 12 86
e 12 88
e 12 90
e 12 91
e 12 92
e 12 98
e 12 99
e 12 100
e 12 104
e 12 106
e 12 107
e 12 108
e 12 109
e 12 110
e 12 111
e 12 114
e 12 115
e 12 117
e 12 123
e 12 124
e 12 126
e 13 14
e 13 17
e 13 18
e 13 19
e 13 20
e 13 25
e 13 28
e 13 33
e 13 36
e 13 39
e 13 41
e 13 42
e 13 43
e 13 47
e 13 48
e 13 50
e 13 54
e 13 55
e 13 56
e 13 58
e 13 62
e 13 63
e 13 66
e 13 68
e 13 70
e 13 72
e 13 78
e 13 79
e 13 80
e 13 84
e 13 85
e 13 86
e 13 87
e 13 88
e 13 90
e 13 98
e 13 99
e 13 100
e 13 101
e 13 106
e 13 107
e 13 108
e 13 109
e 13 111
e 13 114
e 13 115
e 13 116
e 13 117
e 13 123
e 13 124
e 14 17
e 14 18
e 14 25
e 14 28
e 14 33
e 14 36
e 14 38
e 14 41
e 14 42
e 14 47
e 14 50
e 14 54
e 14 55
e 14 56
e 14 58
e 14 63
e 14 66
e 14 67
e 14 68
e 14 70
e 14 71
e 14 72
e 14 73
e 14 78
e 14 79
e 14 80
e 14 84
e 14 85
e 14 86
e 14 88
e 14 90
e 14 91
e 14 98
e 14 99
e 14 100
e 14 104
e 14 106
e 14 107
e 14 108
e 14 109
e 14 110
e 14 111
e 14 114
e 14 115
e 14 117
e 14 123
e 14 124
e 14 126
e 15 16
e 15 22
e 15 23
e 15 24
e 15 29
e 15 30
e 15 31
e 15 32
e 15 46
e 15 52
e 15 74
e 15 76
e 15 77
e 15 83
e 15 93
e 15 96
e 15 112
e 15 120
e 15 122
e 15 128
e 16 22
e 16 23
e 16 24
e 16 31
e 16 32
e 16 74
e 16 77
e 16 83
e 16 93
e 16 96
e 16 112
e 16 122
e 17 18
e 17 19
e 17 20
e 17 25
e 17 26
e 17 27
e 17 28
e 17 33
e 17 34
e 17 35
e 17 36
e 17 39
e 17 40
e 17 41
e 17 42
e 17 43
e 17 44
e 17 45
e 17 47
e 17 48
e 17 49
e 17 50
e 17 54
e 17 55
e 17 56
e 17 58
e 17 62
e 17 63
e 17 66
e 17 67
e 17 68
e 17 69
e 17 70
e 17 71
e 17 72
e 17 73
e 17 78
e 17 79
e 17 80
e 17 81
e 17 84
e 17 85
e 17 86
e 17 87
e 17 88
e 17 90
e 17 91
e 17 92
e 17 98
e 17 99
e 17 100
e 17 101
e 17 102
e 17 103
e 17 104
e 17 105
e 17 106
e 17 107
e 17 108
e 17 109
e 17 110
e 17 111
e 17 114
e 17 115
e 17 116
e 17 117
e 17 118
e 17 121
e 17 123
e 17 124
e 17 125
e 18 19
e 18 20
e 18 25
e 18 26
e 18 28
e 18 33
e 18 34
e 18 35
e 18 36
e 18 39
e 18 40
e 18 41
e 18 42
e 18 43
e 18 47
e 18 48
e 18 49
e 18 50
e 18 54
e 18 55
e 18 56
e 18 58
e 18 62
e 18 63
e 18 66
e 18 67
e 18 68
e 18 70
e 18 71
e 18 72
e 18 73
e 18 78
e 18 79
e 18 80
e 18 81
e 18 84
e 18 85
e 18 86
e 18 87
e 18 88
e 18 90
e 18 91
e 18 98
e 18 99
e 18 100
e 18 101
e 18 104
e 18 106
e 18 107
e 18 108
e 18 109
e 18 110
e 18 111
e 18 114
e 18 115
e 18 116
e 18 117
e 18 123
e 18 124
e 18 125
e 18 126
e 19 20
e 19 21
e 19 25
e 19 26
e 19 27
e 19 30
e 19 33
e 19 34
e 19 35
e 19 36
e 19 39
e 19 40
e 19 41
e 19 42
e 19 43
e 19 44
e 19 45
e 19 46
e 19 48
e 19 49
e 19 54
e 19 55
e 19 56
e 19 57
e 19 59
e 19 60
e 19 62
e 19 63
e 19 66
e 19 69
e 19 70
e 19 71
e 19 78
e 19 79
e 19 80
e 19 81
e 19 82
e 19 84
e 19 86
e 19 87
e 19 90
e 19 91
e 19 92
e 19 98
e 19 99
e 19 100
e 19 101
e 19 102
e 19 103
e 19 105
e 19 106
e 19 107
e 19 108
e 19 109
e 19 114
e 19 116
e 19 118
e 19 119
e 19 121
e 19 123
e 19 125
e 20 21
e 20 25
e 20 26
e 20 27
e 20 33
e 20 34
e 20 35
e 20 36
e 20 39
e 20 40
e 20 41
e 20 42
e 20 43
e 20 45
e 20 46
e 20 48
e 20 49
e 20 54
e 20 55
e 20 56
e 20 57
e 20 62
e 20 63
e 20 66
e 20 68
e 20 69
e 20 70
e 20 71
e 20 78
e 20 79
e 20 80
e 20 81
e 20 84
e 20 85
e 20 86
e 20 87
e 20 88
e 20 90
e 20 92
e 20 98
e 20 99
e 20 100
e 20 101
e 20 102
e 20 103
e 20 106
e 20 107
e 20 108
e 20 109
e 20 114
e 20 116
e 20 117
e 20 121
e 20 123
e 20 125
e 21 29
e 21 30
e 21 34
e 21 35
e 21 43
e 21 45
e 21 46
e 21 57
e 21 60
e 21 69
e 21 77
e 21 81
e 21 87
e 21 93
e 21 101
e 21 102
e 21 116
e 21 119
e 21 120
e 21 121
e 21 125
e 22 23
e 22 24
e 22 29
e 22 31
e 22 32
e 22 52
e 22 53
e 22 64
e 22 74
e 22 75
e 22 76
e 22 77
e 22 83
e 22 89
e 22 93
e 22 96
e 22 97
e 22 112
e 22 113
e 22 120
e 22 122
e 22 127
e 22 128
e 23 24
e 23 29
e 23 31
e 23 32
e 23 52
e 23 53
e 23 64
e 23 74
e 23 75
e 23 76
e 23 77
e 23 83
e 23 89
e 23 93
e 23 96
e 23 97
e 23 112
e 23 113
e 23 120
e 23 122
e 23 127
e 23 128
e 24 31
e 24 32
e 24 52
e 24 74
e 24 76
e 24 77
e 24 83
e 24 89
e 24 93
e 24 96
e 24 112
e 24 120
e 24 122
e 24 128
e 25 26
e 25 27
e 25 28
e 25 33
e 25 34
e 25 35
e 25 36
e 25 39
e 25 40
e 25 41
e 25 42
e 25 43
e 25 45
e 25 47
e 25 48
e 25 49
e 25 50
e 25 54
e 25 55
e 25 56
e 25 58
e 25 62
e 25 63
e 25 66
e 25 68
e 25 69
e 25 70
e 25 71
e 25 72
e 25 78
e 25 79
e 25 80
e 25 81
e 25 84
e 25 85
e 25 86
e 25 87
e 25 88
e 25 90
e 25 91
e 25 98
e 25 99
e 25 100
e 25 101
e 25 106
e 25 107
e 25 108
e 25 109
e 25 110
e 25 111
e 25 114
e 25 115
e 25 116
e 25 117
e 25 123
e 25 124
e 25 125
e 26 27
e 26 33
e 26 34
e 26 35
e 26 37
e 26 38
e 26 39
e 26 40
e 26 44
e 26 49
e 26 54
e 26 55
e 26 56
e 26 59
e 26 61
e 26 62
e 26 65
e 26 66
e 26 67
e 26 70
e 26 71
e 26 73
e 26 78
e 26 79
e 26 81
e 26 82
e 26 84
e 26 91
e 26 92
e 26 94
e 26 95
e 26 98
e 26 101
e 26 103
e 26 104
e 26 105
e 26 106
e 26 107
e 26 108
e 26 110
e 26 114
e 26 115
e 26 118
e 26 119
e 26 123
e 26 124
e 26 126
e 27 29
e 27 30
e 27 33
e 27 34
e 27 35
e 27 37
e 27 39
e 27 40
e 27 43
e 27 44
e 27 45
e 27 49
e 27 51
e 27 54
e 27 55
e 27 57
e 27 59
e 27 60
e 27 62
e 27 66
e 27 69
e 27 71
e 27 78
e 27 79
e 27 81
e 27 82
e 27 87
e 27 91
e 27 92
e 27 94
e 27 95
e 27 98
e 27 101
e 27 102
e 27 103
e 27 105
e 27 106
e 27 116
e 27 118
e 27 119
e 27 121
e 27 123
e 27 125
e 28 33
e 28 36
e 28 41
e 28 42
e 28 47
e 28 48
e 28 50
e 28 54
e 28 55
e 28 56
e 28 58
e 28 63
e 28 67
e 28 68
e 28 70
e 28 72
e 28 78
e 28 79
e 28 80
e 28 84
e 28 85
e 28 86
e 28 88
e 28 90
e 28 98
e 28 99
e 28 100
e 28 106
e 28 107
e 28 108
e 28 109
e 28 111
e 28 114
e 28 115
e 28 117
e 28 123
e 28 124
e 29 30
e 29 31
e 29 32
e 29 34
e 29 35
e 29 37
e 29 45
e 29 46
e 29 51
e 29 52
e 29 53
e 29 57
e 29 60
e 29 64
e 29 69
e 29 74
e 29 75
e 29 76
e 29 77
e 29 81
e 29 93
e 29 96
e 29 97
e 29 102
e 29 119
e 29 120
e 29 122
e 29 125
e 29 127
e 29 128
e 30 31
e 30 32
e 30 34
e 30 35
e 30 37
e 30 43
e 30 45
e 30 46
e 30 51
e 30 57
e 30 60
e 30 69
e 30 77
e 30 81
e 30 93
e 30 102
e 30 112
e 30 116
e 30 119
e 30 120
e 30 121
e 30 125
e 30 127
e 31 32
e 31 46
e 31 52
e 31 74
e 31 76
e 31 77
e 31 83
e 31 89
e 31 93
e 31 96
e 31 112
e 31 120
e 31 122
e 31 127
e 31 128
e 32 52
e 32 74
e 32 76
e 32 77
e 32 83
e 32 89
e 32 93
e 32 96
e 32 112
e 32 120
e 32 122
e 32 127
e 32 128
e 33 34
e 33 35
e 33 36
e 33 39
e 33 40
e 33 41
e 33 42
e 33 43
e 33 45
e 33 47
e 33 48
e 33 49
e 33 50
e 33 54
e 33 55
e 33 56
e 33 58
e 33 62
e 33 63
e 33 66
e 33 67
e 33 68
e 33 69
e 33 70
e 33 71
e 33 72
e 33 73
e 33 78
e 33 79
e 33 80
e 33 81
e 33 84
e 33 85
e 33 86
e 33 87
e 33 88
e 33 90
e 33 91
e 33 92
e 33 98
e 33 99
e 33 100
e 33 101
e 33 103
e 33 104
e 33 106
e 33 107
e 33 108
e 33 109
e 33 110
e 33 111
e 33 114
e 33 115
e 33 116
e 33 117
e 33 123
e 33 124
e 33 125
e 34 35
e 34 37
e 34 39
e 34 40
e 34 41
e 34 43
e 34 44
e 34 45
e 34 49
e 34 51
e 34 54
e 34 55
e 34 57
e 34 59
e 34 60
e 34 62
e 34 66
e 34 69
e 34 71
e 34 78
e 34 79
e 34 81
e 34 82
e 34 87
e 34 91
e 34 92
e 34 94
e 34 95
e 34 98
e 34 101
e 34 102
e 34 103
e 34 105
e 34 106
e 34 107
e 34 108
e 34 116
e 34 118
e 34 119
e 34 120
e 34 121
e 34 123
e 34 125
e 35 37
e 35 39
e 35 40
e 35 41
e 35 43
e 35 44
e 35 45
e 35 46
e 35 48
e 35 49
e 35 51
e 35 54
e 35 55
e 35 57
e 35 59
e 35 60
e 35 62
e 35 66
e 35 69
e 35 70
e 35 78
e 35 79
e 35 81
e 35 82
e 35 87
e 35 92
e 35 98
e 35 101
e 35 102
e 35 103
e 35 105
e 35 106
e 35 107
e 35 108
e 35 116
e 35 118
e 35 119
e 35 120
e 35 121
e 35 123
e 35 125
e 36 39
e 36 41
e 36 42
e 36 43
e 36 47
e 36 48
e 36 50
e 36 54
e 36 55
e 36 56
e 36 58
e 36 63
e 36 66
e 36 67
e 36 68
e 36 70
e 36 72
e 36 78
e 36 79
e 36 80
e 36 84
e 36 85
e 36 86
e 36 87
e 36 88
e 36 90
e 36 98
e 36 99
e 36 100
e 36 101
e 36 106
e 36 107
e 36 108
e 36 109
e 36 110
e 36 111
e 36 114
e 36 115
e 36 117
e 36 123
e 36 124
e 37 39
e 37 44
e 37 49
e 37 51
e 37 53
e 37 57
e 37 59
e 37 60
e 37 62
e 37 64
e 37 75
e 37 81
e 37 82
e 37 92
e 37 94
e 37 95
e 37 97
e 37 102
e 37 103
e 37 105
e 37 118
e 37 119
e 37 120
e 37 127
e 38 40
e 38 42
e 38 44
e 38 47
e 38 56
e 38 61
e 38 65
e 38 67
e 38 71
e 38 73
e 38 84
e 38 90
e 38 91
e 38 92
e 38 104
e 38 110
e 38 114
e 38 115
e 38 123
e 38 124
e 38 126
e 39 40
e 39 41
e 39 42
e 39 43
e 39 44
e 39 45
e 39 48
e 39 49
e 39 51
e 39 54
e 39 55
e 39 56
e 39 57
e 39 59
e 39 60
e 39 62
e 39 66
e 39 69
e 39 70
e 39 71
e 39 73
e 39 78
e 39 79
e 39 80
e 39 81
e 39 82
e 39 84
e 39 87
e 39 90
e 39 91
e 39 92
e 39 94
e 39 95
e 39 98
e 39 99
e 39 100
e 39 101
e 39 102
e 39 103
e 39 104
e 39 105
e 39 106
e 39 107
e 39 108
e 39 110
e 39 114
e 39 116
e 39 118
e 39 119
e 39 121
e 39 123
e 39 125
e 40 41
e 40 42
e 40 43
e 40 44
e 40 47
e 40 49
e 40 54
e 40 55
e 40 56
e 40 59
e 40 61
e 40 62
e 40 65
e 40 66
e 40 67
e 40 70
e 40 71
e 40 73
e 40 78
e 40 79
e 40 80
e 40 81
e 40 82
e 40 84
e 40 85
e 40 87
e 40 90
e 40 91
e 40 92
e 40 94
e 40 95
e 40 98
e 40 99
e 40 100
e 40 101
e 40 103
e 40 104
e 40 105
e 40 106
e 40 107
e 40 108
e 40 109
e 40 110
e 40 114
e 40 115
e 40 116
e 40 118
e 40 123
e 40 124
e 40 125
e 40 126
e 41 42
e 41 43
e 41 45
e 41 47
e 41 48
e 41 50
e 41 54
e 41 55
e 41 56
e 41 58
e 41 62
e 41 63
e 41 66
e 41 68
e 41 69
e 41 70
e 41 71
e 41 72
e 41 78
e 41 79
e 41 80
e 41 81
e 41 84
e 41 85
e 41 86
e 41 87
e 41 88
e 41 90
e 41 98
e 41 99
e 41 100
e 41 101
e 41 106
e 41 107
e 41 108
e 41 109
e 41 111
e 41 114
e 41 115
e 41 116
e 41 117
e 41 121
e 41 123
e 41 125
e 42 47
e 42 48
e 42 50
e 42 54
e 42 55
e 42 56
e 42 58
e 42 63
e 42 66
e 42 67
e 42 68
e 42 70
e 42 71
e 42 72
e 42 73
e 42 78
e 42 79
e 42 80
e 42 84
e 42 85
e 42 86
e 42 88
e 42 90
e 42 91
e 42 98
e 42 99
e 42 100
e 42 101
e 42 104
e 42 106
e 42 107
e 42 108
e 42 109
e 42 110
e 42 111
e 42 114
e 42 115
e 42 117
e 42 123
e 42 124
e 42 126
e 43 44
e 43 45
e 43 46
e 43 48
e 43 49
e 43 54
e 43 55
e 43 57
e 43 59
e 43 60
e 43 62
e 43 66
e 43 69
e 43 70
e 43 71
e 43 78
e 43 79
e 43 80
e 43 81
e 43 87
e 43 90
e 43 92
e 43 98
e 43 99
e 43 100
e 43 101
e 43 102
e 43 103
e 43 105
e 43 106
e 43 107
e 43 108
e 43 116
e 43 118
e 43 119
e 43 121
e 43 123
e 43 125
e 44 49
e 44 51
e 44 54
e 44 55
e 44 59
e 44 60
e 44 62
e 44 65
e 44 66
e 44 67
e 44 71
e 44 73
e 44 78
e 44 79
e 44 81
e 44 82
e 44 84
e 44 91
e 44 92
e 44 94
e 44 95
e 44 98
e 44 102
e 44 103
e 44 104
e 44 105
e 44 110
e 44 118
e 44 119
e 44 123
e 44 125
e 44 126
e 45 46
e 45 48
e 45 49
e 45 54
e 45 55
e 45 57
e 45 59
e 45 60
e 45 62
e 45 66
e 45 69
e 45 78
e 45 79
e 45 81
e 45 87
e 45 92
e 45 98
e 45 101
e 45 102
e 45 103
e 45 106
e 45 107
e 45 116
e 45 118
e 45 119
e 45 121
e 45 123
e 45 125
e 46 57
e 46 69
e 46 77
e 46 81
e 46 87
e 46 93
e 46 101
e 46 102
e 46 116
e 46 121
e 46 125
e 47 48
e 47 50
e 47 54
e 47 55
e 47 56
e 47 58
e 47 61
e 47 63
e 47 65
e 47 66
e 47 67
e 47 68
e 47 70
e 47 71
e 47 72
e 47 73
e 47 78
e 47 79
e 47 80
e 47 84
e 47 85
e 47 86
e 47 88
e 47 90
e 47 91
e 47 98
e 47 99
e 47 100
e 47 104
e 47 106
e 47 107
e 47 108
e 47 109
e 47 110
e 47 111
e 47 114
e 47 115
e 47 117
e 47 123
e 47 124
e 47 126
e 48 54
e 48 55
e 48 56
e 48 62
e 48 63
e 48 66
e 48 68
e 48 69
e 48 70
e 48 72
e 48 78
e 48 79
e 48 80
e 48 81
e 48 84
e 48 85
e 48 86
e 48 87
e 48 88
e 48 90
e 48 98
e 48 99
e 48 100
e 48 101
e 48 106
e 48 107
e 48 108
e 48 109
e 48 114
e 48 116
e 48 117
e 48 121
e 48 123
e 48 125
e 49 51
e 49 54
e 49 55
e 49 57
e 49 59
e 49 60
e 49 62
e 49 66
e 49 69
e 49 71
e 49 78
e 49 79
e 49 81
e 49 82
e 49 87
e 49 91
e 49 92
e 49 94
e 49 95
e 49 98
e 49 101
e 49 102
e 49 103
e 49 104
e 49 105
e 49 106
e 49 107
e 49 108
e 49 116
e 49 118
e 49 119
e 49 123
e 49 125
e 50 55
e 50 56
e 50 58
e 50 63
e 50 67
e 50 68
e 50 70
e 50 72
e 50 78
e 50 79
e 50 80
e 50 84
e 50 85
e 50 86
e 50 88
e 50 90
e 50 99
e 50 100
e 50 106
e 50 107
e 50 108
e 50 109
e 50 110
e 50 111
e 50 114
e 50 115
e 50 117
e 50 123
e 50 124
e 51 53
e 51 57
e 51 59
e 51 60
e 51 62
e 51 64
e 51 75
e 51 81
e 51 82
e 51 92
e 51 93
e 51 94
e 51 95
e 51 97
e 51 102
e 51 103
e 51 105
e 51 113
e 51 118
e 51 119
e 51 120
e 51 125
e 51 127
e 52 53
e 52 64
e 52 74
e 52 75
e 52 76
e 52 77
e 52 83
e 52 89
e 52 93
e 52 96
e 52 97
e 52 112
e 52 113
e 52 120
e 52 122
e 52 127
e 52 128
e 53 64
e 53 74
e 53 75
e 53 76
e 53 83
e 53 89
e 53 93
e 53 96
e 53 97
e 53 113
e 53 120
e 53 122
e 53 127
e 53 128
e 54 55
e 54 56
e 54 57
e 54 59
e 54 60
e 54 62
e 54 63
e 54 66
e 54 67
e 54 68
e 54 69
e 54 70
e 54 71
e 54 72
e 54 73
e 54 78
e 54 79
e 54 80
e 54 81
e 54 82
e 54 84
e 54 85
e 54 86
e 54 87
e 54 88
e 54 90
e 54 91
e 54 92
e 54 98
e 54 99
e 54 100
e 54 101
e 54 102
e 54 103
e 54 104
e 54 105
e 54 106
e 54 107
e 54 108
e 54 109
e 54 110
e 54 114
e 54 115
e 54 116
e 54 117
e 54 118
e 54 119
e 54 121
e 54 123
e 54 124
e 54 125
e 54 126
e 55 56
e 55 57
e 55 62
e 55 63
e 55 66
e 55 67
e 55 68
e 55 69
e 55 70
e 55 71
e 55 72
e 55 73
e 55 78
e 55 79
e 55 80
e 55 81
e 55 84
e 55 85
e 55 86
e 55 87
e 55 88
e 55 90
e 55 91
e 55 92
e 55 98
e 55 99
e 55 100
e 55 101
e 55 102
e 55 103
e 55 105
e 55 106
e 55 107
e 55 108
e 55 109
e 55 110
e 55 111
e 55 114
e 55 115
e 55 116
e 55 117
e 55 118
e 55 121
e 55 123
e 55 124
e 55 125
e 56 58
e 56 61
e 56 62
e 56 63
e 56 65
e 56 66
e 56 67
e 56 68
e 56 70
e 56 71
e 56 72
e 56 73
e 56 78
e 56 79
e 56 80
e 56 84
e 56 85
e 56 86
e 56 87
e 56 88
e 56 90
e 56 91
e 56 92
e 56 98
e 56 99
e 56 100
e 56 101
e 56 104
e 56 106
e 56 107
e 56 108
e 56 109
e 56 110
e 56 111
e 56 114
e 56 115
e 56 117
e 56 123
e 56 124
e 56 126
e 57 59
e 57 60
e 57 62
e 57 66
e 57 69
e 57 81
e 57 82
e 57 87
e 57 93
e 57 98
e 57 101
e 57 102
e 57 103
e 57 116
e 57 118
e 57 119
e 57 120
e 57 121
e 57 125
e 57 127
e 58 63
e 58 68
e 58 70
e 58 72
e 58 79
e 58 80
e 58 84
e 58 85
e 58 86
e 58 88
e 58 90
e 58 99
e 58 100
e 58 106
e 58 107
e 58 108
e 58 109
e 58 111
e 58 114
e 58 115
e 58 117
e 58 124
e 59 60
e 59 62
e 59 66
e 59 71
e 59 75
e 59 78
e 59 81
e 59 82
e 59 91
e 59 92
e 59 94
e 59 95
e 59 98
e 59 102
e 59 103
e 59 105
e 59 116
e 59 118
e 59 119
e 59 123
e 59 125
e 60 62
e 60 64
e 60 66
e 60 69
e 60 75
e 60 81
e 60 82
e 60 92
e 60 93
e 60 94
e 60 102
e 60 103
e 60 105
e 60 118
e 60 119
e 60 120
e 60 125
e 60 127
e 61 65
e 61 67
e 61 71
e 61 73
e 61 84
e 61 91
e 61 104
e 61 110
e 61 114
e 61 115
e 61 124
e 61 126
e 62 66
e 62 67
e 62 69
e 62 70
e 62 71
e 62 73
e 62 78
e 62 79
e 62 80
e 62 81
e 62 82
e 62 84
e 62 87
e 62 90
e 62 91
e 62 92
e 62 94
e 62 95
e 62 98
e 62 99
e 62 101
e 62 102
e 62 103
e 62 104
e 62 105
e 62 106
e 62 107
e 62 108
e 62 110
e 62 114
e 62 116
e 62 118
e 62 119
e 62 123
e 62 125
e 63 66
e 63 67
e 63 68
e 63 70
e 63 72
e 63 78
e 63 79
e 63 80
e 63 84
e 63 85
e 63 86
e 63 88
e 63 90
e 63 98
e 63 99
e 63 100
e 63 101
e 63 106
e 63 107
e 63 108
e 63 109
e 63 110
e 63 111
e 63 114
e 63 115
e 63 117
e 63 123
e 63 124
e 64 74
e 64 75
e 64 76
e 64 83
e 64 89
e 64 93
e 64 96
e 64 97
e 64 113
e 64 119
e 64 120
e 64 122
e 64 127
e 64 128
e 65 67
e 65 71
e 65 73
e 65 84
e 65 91
e 65 104
e 65 110
e 65 114
e 65 115
e 65 123
e 65 124
e 65 126
e 66 67
e 66 68
e 66 69
e 66 70
e 66 71
e 66 72
e 66 73
e 66 78
e 66 79
e 66 80
e 66 81
e 66 82
e 66 84
e 66 85
e 66 86
e 66 87
e 66 88
e 66 90
e 66 91
e 66 92
e 66 94
e 66 95
e 66 98
e 66 99
e 66 100
e 66 101
e 66 102
e 66 103
e 66 104
e 66 105
e 66 106
e 66 107
e 66 108
e 66 109
e 66 110
e 66 114
e 66 115
e 66 116
e 66 117
e 66 118
e 66 119
e 66 123
e 66 124
e 66 125
e 66 126
e 67 68
e 67 70
e 67 71
e 67 72
e 67 73
e 67 78
e 67 79
e 67 80
e 67 84
e 67 85
e 67 86
e 67 90
e 67 91
e 67 92
e 67 99
e 67 100
e 67 104
e 67 105
e 67 106
e 67 107
e 67 108
e 67 109
e 67 110
e 67 114
e 67 115
e 67 117
e 67 123
e 67 124
e 67 126
e 68 70
e 68 72
e 68 78
e 68 79
e 68 80
e 68 84
e 68 85
e 68 86
e 68 88
e 68 90
e 68 98
e 68 99
e 68 100
e 68 106
e 68 107
e 68 108
e 68 109
e 68 110
e 68 111
e 68 114
e 68 115
e 68 117
e 68 123
e 68 124
e 69 78
e 69 79
e 69 81
e 69 87
e 69 98
e 69 101
e 69 102
e 69 103
e 69 116
e 69 121
e 69 123
e 69 125
e 70 71
e 70 72
e 70 73
e 70 78
e 70 79
e 70 80
e 70 81
e 70 84
e 70 85
e 70 86
e 70 87
e 70 88
e 70 90
e 70 91
e 70 98
e 70 99
e 70 100
e 70 101
e 70 106
e 70 107
e 70 108
e 70 109
e 70 110
e 70 111
e 70 114
e 70 115
e 70 116
e 70 117
e 70 123
e 70 124
e 70 125
e 71 72
e 71 73
e 71 78
e 71 79
e 71 80
e 71 82
e 71 84
e 71 85
e 71 90
e 71 91
e 71 92
e 71 94
e 71 95
e 71 98
e 71 99
e 71 100
e 71 101
e 71 103
e 71 104
e 71 105
e 71 106
e 71 107
e 71 108
e 71 109
e 71 110
e 71 114
e 71 115
e 71 118
e 71 123
e 71 124
e 71 126
e 72 73
e 72 78
e 72 79
e 72 80
e 72 84
e 72 85
e 72 86
e 72 88
e 72 90
e 72 98
e 72 99
e 72 100
e 72 106
e 72 107
e 72 108
e 72 109
e 72 110
e 72 111
e 72 114
e 72 115
e 72 117
e 72 123
e 72 124
e 72 126
e 73 78
e 73 79
e 73 82
e 73 84
e 73 85
e 73 90
e 73 91
e 73 92
e 73 95
e 73 99
e 73 100
e 73 104
e 73 105
e 73 106
e 73 107
e 73 108
e 73 109
e 73 110
e 73 114
e 73 115
e 73 117
e 73 118
e 73 123
e 73 124
e 73 126
e 74 75
e 74 76
e 74 77
e 74 83
e 74 89
e 74 93
e 74 96
e 74 97
e 74 112
e 74 113
e 74 120
e 74 122
e 74 127
e 74 128
e 75 76
e 75 82
e 75 89
e 75 94
e 75 97
e 75 102
e 75 113
e 75 118
e 75 119
e 75 120
e 75 127
e 75 128
e 76 77
e 76 83
e 76 89
e 76 93
e 76 96
e 76 97
e 76 112
e 76 113
e 76 120
e 76 122
e 76 127
e 76 128
e 77 83
e 77 93
e 77 96
e 77 112
e 77 120
e 77 122
e 77 127
e 77 128
e 78 79
e 78 80
e 78 81
e 78 82
e 78 84
e 78 85
e 78 86
e 78 87
e 78 88
e 78 90
e 78 91
e 78 92
e 78 98
e 78 99
e 78 100
e 78 101
e 78 102
e 78 103
e 78 104
e 78 105
e 78 106
e 78 107
e 78 108
e 78 109
e 78 110
e 78 111
e 78 114
e 78 115
e 78 116
e 78 117
e 78 118
e 78 123
e 78 124
e 78 125
e 78 126
e 79 80
e 79 81
e 79 84
e 79 85
e 79 86
e 79 87
e 79 88
e 79 90
e 79 91
e 79 92
e 79 98
e 79 99
e 79 100
e 79 101
e 79 102
e 79 103
e 79 104
e 79 106
e 79 107
e 79 108
e 79 109
e 79 110
e 79 111
e 79 114
e 79 115
e 79 116
e 79 117
e 79 118
e 79 121
e 79 123
e 79 124
e 79 125
e 80 81
e 80 84
e 80 85
e 80 86
e 80 87
e 80 88
e 80 90
e 80 91
e 80 98
e 80 99
e 80 100
e 80 101
e 80 106
e 80 107
e 80 108
e 80 109
e 80 110
e 80 111
e 80 114
e 80 115
e 80 116
e 80 117
e 80 123
e 80 124
e 81 82
e 81 87
e 81 92
e 81 98
e 81 99
e 81 101
e 81 102
e 81 103
e 81 105
e 81 106
e 81 107
e 81 108
e 81 116
e 81 118
e 81 119
e 81 120
e 81 121
e 81 123
e 81 125
e 82 91
e 82 92
e 82 94
e 82 95
e 82 102
e 82 103
e 82 104
e 82 105
e 82 110
e 82 118
e 82 119
e 82 123
e 82 125
e 83 89
e 83 93
e 83 96
e 83 97
e 83 112
e 83 113
e 83 120
e 83 122
e 83 127
e 83 128
e 84 85
e 84 86
e 84 88
e 84 90
e 84 91
e 84 92
e 84 98
e 84 99
e 84 100
e 84 104
e 84 106
e 84 107
e 84 108
e 84 109
e 84 110
e 84 111
e 84 114
e 84 115
e 84 117
e 84 123
e 84 124
e 84 126
e 85 86
e 85 88
e 85 90
e 85 91
e 85 98
e 85 99
e 85 100
e 85 104
e 85 106
e 85 107
e 85 108
e 85 109
e 85 110
e 85 111
e 85 114
e 85 115
e 85 117
e 85 123
e 85 124
e 85 126
e 86 88
e 86 90
e 86 98
e 86 99
e 86 100
e 86 106
e 86 107
e 86 108
e 86 109
e 86 110
e 86 111
e 86 114
e 86 115
e 86 117
e 86 123
e 86 124
e 87 90
e 87 98
e 87 99
e 87 100
e 87 101
e 87 102
e 87 106
e 87 107
e 87 108
e 87 114
e 87 116
e 87 121
e 87 123
e 87 125
e 88 90
e 88 98
e 88 99
e 88 100
e 88 106
e 88 107
e 88 108
e 88 109
e 88 111
e 88 114
e 88 115
e 88 117
e 88 123
e 88 124
e 89 93
e 89 96
e 89 97
e 89 112
e 89 113
e 89 120
e 89 122
e 89 127
e 89 128
e 90 91
e 90 98
e 90 99
e 90 100
e 90 101
e 90 104
e 90 106
e 90 107
e 90 108
e 90 109
e 90 110
e 90 111
e 90 114
e 90 115
e 90 117
e 90 123
e 90 124
e 90 126
e 91 92
e 91 94
e 91 95
e 91 98
e 91 99
e 91 103
e 91 104
e 91 105
e 91 106
e 91 107
e 91 108
e 91 109
e 91 110
e 91 114
e 91 115
e 91 118
e 91 123
e 91 124
e 91 126
e 92 94
e 92 95
e 92 98
e 92 102
e 92 103
e 92 104
e 92 105
e 92 106
e 92 110
e 92 116
e 92 118
e 92 119
e 92 123
e 92 125
e 92 126
e 93 96
e 93 97
e 93 102
e 93 112
e 93 113
e 93 119
e 93 120
e 93 122
e 93 127
e 93 128
e 94 95
e 94 102
e 94 103
e 94 104
e 94 105
e 94 118
e 94 119
e 95 103
e 95 104
e 95 105
e 95 118
e 95 119
e 96 112
e 96 113
e 96 120
e 96 122
e 96 128
e 97 113
e 97 120
e 97 122
e 97 127
e 97 128
e 98 99
e 98 100
e 98 101
e 98 102
e 98 103
e 98 105
e 98 106
e 98 107
e 98 108
e 98 109
e 98 110
e 98 114
e 98 115
e 98 116
e 98 117
e 98 118
e 98 121
e 98 123
e 98 125
e 99 100
e 99 101
e 99 104
e 99 106
e 99 107
e 99 108
e 99 109
e 99 110
e 99 111
e 99 114
e 99 115
e 99 116
e 99 117
e 99 123
e 99 124
e 99 126
e 100 101
e 100 106
e 100 107
e 100 108
e 100 109
e 100 110
e 100 111
e 100 114
e 100 115
e 100 117
e 100 123
e 100 124
e 101 102
e 101 103
e 101 106
e 101 107
e 101 108
e 101 109
e 101 114
e 101 116
e 101 121
e 101 123
e 101 125
e 102 103
e 102 105
e 102 116
e 102 118
e 102 119
e 102 120
e 102 121
e 102 123
e 102 125
e 102 127
e 103 104
e 103 105
e 103 116
e 103 118
e 103 119
e 103 123
e 103 125
e 104 105
e 104 106
e 104 107
e 104 108
e 104 110
e 104 114
e 104 115
e 104 118
e 104 123
e 104 124
e 104 126
e 105 110
e 105 118
e 105 119
e 105 123
e 105 125
e 105 126
e 106 107
e 106 108
e 106 109
e 106 110
e 106 111
e 106 114
e 106 115
e 106 116
e 106 117
e 106 123
e 106 124
e 106 125
e 107 108
e 107 109
e 107 110
e 107 111
e 107 114
e 107 115
e 107 116
e 107 117
e 107 123
e 107 124
e 107 125
e 108 109
e 108 110
e 108 111
e 108 114
e 108 115
e 108 116
e 108 117
e 108 123
e 108 124
e 108 125
e 108 126
e 109 110
e 109 111
e 109 114
e 109 115
e 109 117
e 109 123
e 109 124
e 109 126
e 110 114
e 110 115
e 110 117
e 110 118
e 110 123
e 110 124
e 110 126
e 111 114
e 111 115
e 111 117
e 111 124
e 112 120
e 112 122
e 112 128
e 113 120
e 113 122
e 113 127
e 113 128
e 114 115
e 114 117
e 114 123
e 114 124
e 114 126
e 115 117
e 115 123
e 115 124
e 115 126
e 116 118
e 116 119
e 116 121
e 116 123
e 116 125
e 117 123
e 117 124
e 118 119
e 118 123
e 118 125
e 119 120
e 119 125
e 119 127
e 120 122
e 120 127
e 120 128
e 121 125
e 122 127
e 122 128
e 123 124
e 123 125
e 123 126
e 124 126
e 127 128
